943
20	27	42	11	46	23	43	27	30	23	14	40	6	33	16	44	12	35	15	14	36	4	19	13	23	12	9	43	27	49	22	45	45	33	20	42	19	0	44	38	20	49	19	10	30	11	5	4	39	29	
6	43	27	26	12	20	44	18	36	24	34	17	37	26	18	6	22	0	37	2	17	10	40	15	29	22	17	25	44	25	1	39	13	43	38	34	41	2	38	35	18	17	14	18	28	30	34	41	0	37	